p cnf 114 403
2 -3 -4 0
-2 3 -4 0
2 3 4 0
-2 -3 4 0
1 -4 -5 0
-1 4 -5 0
1 4 5 0
-1 -4 5 0
7 -2 0
7 -6 0
2 6 -7 0
9 -7 0
9 -8 0
7 8 -9 0
-11 -10 0
-11 -1 0
10 1 11 0
15 -13 0
15 14 0
13 -14 -15 0
-12 -15 -16 0
12 15 -16 0
-12 15 16 0
12 -15 16 0
-12 8 -17 0
12 -8 -17 0
-12 -8 17 0
12 8 17 0
-18 16 0
-18 17 0
-16 -17 18 0
-19 11 0
-19 -18 0
-11 18 19 0
-9 19 -20 0
9 -19 -20 0
-9 -19 20 0
9 19 20 0
-22 -21 0
-22 8 0
21 -8 22 0
-23 12 0
-23 -22 0
-12 22 23 0
20 23 -24 0
-20 -23 -24 0
20 -23 24 0
-20 23 24 0
26 25 0
26 8 0
-25 -8 -26 0
17 -26 -27 0
-17 26 -27 0
17 26 27 0
-17 -26 27 0
28 12 0
28 -6 0
-12 6 -28 0
-29 13 0
-29 28 0
-13 -28 29 0
-30 1 0
-30 8 0
-1 -8 30 0
32 25 0
32 31 0
-25 -31 -32 0
30 32 -33 0
-30 -32 -33 0
30 -32 33 0
-30 32 33 0
34 28 0
34 -10 0
-28 10 -34 0
-35 -33 0
-35 34 0
33 -34 35 0
-29 35 -36 0
29 -35 -36 0
-29 -35 36 0
29 35 36 0
37 -17 0
37 36 0
17 -36 -37 0
-27 37 -38 0
27 -37 -38 0
-27 -37 38 0
27 37 38 0
-39 24 0
-39 38 0
-24 -38 39 0
5 -39 -40 0
-5 39 -40 0
5 39 40 0
-5 -39 40 0
2 31 -41 0
-2 -31 -41 0
2 -31 41 0
-2 31 41 0
-42 16 0
-42 17 0
-16 -17 42 0
-43 42 0
-43 -25 0
-42 25 43 0
44 41 0
44 43 0
-41 -43 -44 0
-45 -41 0
-45 26 0
41 -26 45 0
45 -43 -46 0
-45 43 -46 0
45 43 46 0
-45 -43 46 0
-44 46 -47 0
44 -46 -47 0
-44 -46 47 0
44 46 47 0
-48 -40 0
-48 47 0
40 -47 48 0
26 -13 -49 0
-26 13 -49 0
26 13 49 0
-26 -13 49 0
-50 31 0
-50 49 0
-31 -49 50 0
48 -50 -51 0
-48 50 -51 0
48 50 51 0
-48 -50 51 0
52 12 0
52 33 0
-12 -33 -52 0
-12 28 -53 0
12 -28 -53 0
-12 -28 53 0
12 28 53 0
54 13 0
54 28 0
-13 -28 -54 0
-55 -14 0
-55 1 0
14 -1 55 0
-31 7 -56 0
31 -7 -56 0
-31 -7 56 0
31 7 56 0
-57 -55 0
-57 -56 0
55 56 57 0
-54 57 -58 0
54 -57 -58 0
-54 -57 58 0
54 57 58 0
-53 58 -59 0
53 -58 -59 0
-53 -58 59 0
53 58 59 0
32 6 -60 0
-32 -6 -60 0
32 -6 60 0
-32 6 60 0
-61 30 0
-61 -60 0
-30 60 61 0
-62 29 0
-62 25 0
-29 -25 62 0
62 17 -63 0
-62 -17 -63 0
62 -17 63 0
-62 17 63 0
64 -61 0
64 63 0
61 -63 -64 0
-65 10 0
-65 14 0
-10 -14 65 0
66 -15 0
66 65 0
15 -65 -66 0
-64 -66 -67 0
64 66 -67 0
-64 66 67 0
64 -66 67 0
68 26 0
68 -28 0
-26 28 -68 0
-67 -68 -69 0
67 68 -69 0
-67 68 69 0
67 -68 69 0
-71 -62 0
-71 70 0
62 -70 71 0
-72 69 0
-72 -71 0
-69 71 72 0
59 72 -73 0
-59 -72 -73 0
59 -72 73 0
-59 72 73 0
52 73 -74 0
-52 -73 -74 0
52 -73 74 0
-52 73 74 0
75 -51 0
75 74 0
51 -74 -75 0
-76 30 0
-76 2 0
-30 -2 76 0
77 -32 0
77 -6 0
32 6 -77 0
-78 -49 0
-78 -60 0
49 60 78 0
-79 14 0
-79 32 0
-14 -32 79 0
79 13 -80 0
-79 -13 -80 0
79 -13 80 0
-79 13 80 0
-81 -80 0
-81 16 0
80 -16 81 0
82 60 0
82 -15 0
-60 15 -82 0
-82 6 -83 0
82 -6 -83 0
-82 -6 83 0
82 6 83 0
84 -1 0
84 -83 0
1 83 -84 0
85 -81 0
85 84 0
81 -84 -85 0
-86 78 0
-86 85 0
-78 -85 86 0
87 77 0
87 86 0
-77 -86 -87 0
88 76 0
88 87 0
-76 -87 -88 0
89 -62 0
89 -82 0
62 82 -89 0
90 6 0
90 29 0
-6 -29 -90 0
91 89 0
91 -90 0
-89 90 -91 0
92 -88 0
92 91 0
88 -91 -92 0
93 14 -94 0
-93 -14 -94 0
93 -14 94 0
-93 14 94 0
95 82 0
95 26 0
-82 -26 -95 0
96 94 0
96 95 0
-94 -95 -96 0
97 -32 0
97 -7 0
32 7 -97 0
96 -97 -98 0
-96 97 -98 0
96 97 98 0
-96 -97 98 0
99 -92 0
99 -98 0
92 98 -99 0
75 99 -100 0
-75 -99 -100 0
75 -99 100 0
-75 99 100 0
-101 -8 0
-101 6 0
8 -6 101 0
-83 101 -102 0
83 -101 -102 0
-83 -101 102 0
83 101 102 0
103 -100 0
103 -102 0
100 102 -103 0
104 -29 0
104 33 0
29 -33 -104 0
-103 104 -105 0
103 -104 -105 0
-103 -104 105 0
103 104 105 0
-106 -26 0
-106 31 0
26 -31 106 0
107 60 0
107 106 0
-60 -106 -107 0
-108 -14 0
-108 107 0
14 -107 108 0
109 3 0
109 -108 0
-3 108 -109 0
-33 -79 -110 0
33 79 -110 0
-33 79 110 0
33 -79 110 0
-111 8 0
-111 -62 0
-8 62 111 0
-112 110 0
-112 111 0
-110 -111 112 0
-113 109 0
-113 112 0
-109 -112 113 0
105 113 -114 0
-105 -113 -114 0
105 -113 114 0
-105 113 114 0
20 56 0
-81 5 -3 31 17 -24 0
48 -65 0
-67 90 37 21 -4 -18 0
-94 -71 104 73 0
-112 -111 4 91 0
62 -69 -46 0
99 -78 0
60 -61 -46 79 28 0
-22 60 0
-57 38 -10 -60 0
-98 -69 -107 2 0
-104 -9 -17 22 -46 0
73 74 20 39 78 -63 0
-101 -68 18 -75 -80 37 0
29 38 85 52 -106 0
-91 9 32 0
107 -28 105 -31 -71 -74 0
-50 -85 -59 41 0
-104 25 -103 12 30 0
99 -60 49 83 50 0
-113 87 79 -45 19 -56 0
66 -26 -37 0
-86 -44 -107 0
-12 72 -40 0
-102 14 0
107 -59 99 26 -97 -66 0
-101 -61 22 0
113 -3 0
-81 62 -41 85 -44 0
57 -41 -95 66 84 0
20 9 -16 101 99 0
25 52 -34 0
-42 -34 28 -95 0
23 -102 59 0
-70 25 0
103 29 -2 0
-78 71 -31 73 0
7 47 -96 3 100 0
24 97 0
20 -81 21 -9 -105 -110 0
-26 103 -73 0
-94 21 97 0
-35 109 44 -61 0
-9 -91 109 -41 38 0
95 -38 48 9 0
107 -48 -23 -37 35 0
-5 -38 -107 58 -85 0
-19 80 87 -10 -60 -79 0
65 23 66 96 -54 -91 0
57 83 64 10 -55 0
59 68 76 0
-50 -48 91 -81 -85 0
-57 30 0
6 -18 48 35 14 0
-79 -109 -2 -14 -43 -91 0
9 1 -34 -41 -66 0
43 81 -73 -86 -87 0
9 -79 22 0
-45 34 -105 99 111 47 0
-22 35 65 0
89 20 31 96 51 0
-41 -94 106 0
-79 -75 -54 88 -83 0
65 -20 -14 16 0
50 83 64 22 -97 0
-111 87 8 0
114 0
